NAME : morphed22-5-21
COMMENT : Generated using the function morphInstances from the R-package netgen (Bossek,2015) - Number of clusters: 5 Alpha: 0.5
TYPE : TSP
DIMENSION : 22
EDGE_WEIGHT_TYPE : EUC_2D
NODE_COORD_SECTION
1 78.9826362642 70.2723591362
2 20.5972609082 94.9039867726
3 69.6409999768 14.9265451019
4 17.9456294738 83.6444146688
5 94.4615787831 63.399283946
6 91.9280011251 75.613421486
7 10.5718356049 79.6493570545
8 24.5856821681 65.374688013
9 98.8836536044 92.2412813822
10 74.4706337617 41.8840762352
11 62.700348753 54.0471145967
12 95.4322960971 81.0082774538
13 6.4320142278 87.6095223018
14 61.8169354108 13.9821474786
15 36.4582288478 14.6152468246
16 16.6381220893 64.3241790652
17 53.5018671061 31.8491232952
18 31.0875873286 56.5012577271
19 52.1487921677 50.0859086097
20 74.5460359839 89.0439428091
21 16.4107458644 57.2895740118
22 58.4107849289 4.9836718189
EOF
